This is Ipopt version 3.10.1, running with linear solver mumps.

Number of nonzeros in equality constraint Jacobian...:      177
Number of nonzeros in inequality constraint Jacobian.:        0
Number of nonzeros in Lagrangian Hessian.............:     3324

Total number of variables............................:       90
                     variables with only lower bounds:        0
                variables with lower and upper bounds:       90
                     variables with only upper bounds:        0
Total number of equality constraints.................:       59
Total number of inequality constraints...............:        0
        inequality constraints with only lower bounds:        0
   inequality constraints with lower and upper bounds:        0
        inequality constraints with only upper bounds:        0

iter    objective    inf_pr   inf_du lg(mu)  ||d||  lg(rg) alpha_du alpha_pr  ls
   0 -6.9648937e-04 6.58e-12 3.60e-04  -1.0 0.00e+00    -  0.00e+00 0.00e+00   0
   1 -6.5111901e-04 1.78e-10 6.11e-06  -1.7 1.78e-02    -  1.00e+00 1.00e+00f  1
   2 -5.7465701e-04 4.44e-16 2.12e-05  -2.5 3.67e-02    -  1.00e+00 1.00e+00f  1
   3 -5.7661129e-04 4.44e-16 2.23e-06  -3.8 2.07e-02    -  1.00e+00 1.00e+00f  1
   4 -7.2620429e-04 4.44e-16 2.62e-04  -5.7 2.44e-02  -2.0 9.56e-01 1.00e+00f  1
   5 -6.7640016e-04 2.22e-16 6.15e-03  -5.7 7.19e+00  -2.5 1.55e-02 5.70e-02h  1
   6 -7.1887264e-04 2.22e-16 5.11e-03  -5.7 4.02e-01  -2.1 8.17e-01 1.85e-01f  2
   7 -9.7093194e-04 1.38e-12 6.03e-04  -5.7 2.24e-02  -1.6 1.00e+00 1.00e+00f  1
   8 -1.3151568e-03 1.49e-12 8.65e-04  -5.7 1.36e+00  -2.1 1.26e-01 1.65e-02f  1
   9 -3.1929449e-03 1.11e-16 2.80e-03  -5.7 6.91e-02  -1.7 1.00e+00 1.00e+00f  1
iter    objective    inf_pr   inf_du lg(mu)  ||d||  lg(rg) alpha_du alpha_pr  ls
  10 -3.7368268e-03 2.22e-16 2.91e-03  -5.7 5.68e-02  -1.3 1.00e+00 2.08e-01f  1
  11 -3.7306429e-03 2.22e-16 2.91e-03  -5.7 2.66e-01  -1.7 9.79e-02 4.88e-04f 12
  12 -4.1996883e-03 2.27e-13 4.01e-03  -5.7 9.41e-02  -1.3 1.00e+00 9.44e-02f  1
  13 -4.1902131e-03 2.27e-13 3.12e-03  -5.7 1.84e-01  -1.8 9.09e-02 9.77e-04f 11
  14 -4.3304162e-03 2.23e-13 6.93e-03  -5.7 1.49e-01  -1.4 1.00e+00 1.71e-02f  1
  15 -5.6211288e-03 4.86e-14 3.38e-03  -5.7 2.60e-02  -0.9 1.00e+00 7.82e-01f  1
  16 -8.6861451e-03 4.60e-14 2.47e-02  -5.7 7.70e-01  -1.4 4.76e-01 5.39e-02f  1
  17 -1.0027727e-02 8.34e-13 1.23e-02  -5.7 8.56e-02  -1.0 1.00e+00 1.74e-01f  1
  18 -1.0027150e-02 8.34e-13 8.97e-03  -5.7 5.05e-01  -1.5 5.05e-02 1.30e-05f 17
  19 -1.0789622e-02 7.86e-13 1.94e-02  -5.7 1.38e-01  -1.0 1.00e+00 5.65e-02f  1
iter    objective    inf_pr   inf_du lg(mu)  ||d||  lg(rg) alpha_du alpha_pr  ls
  20 -1.2024289e-02 1.74e-12 7.07e-03  -5.7 2.85e-02  -0.6 1.00e+00 4.16e-01f  1
  21 -1.2818287e-02 2.07e-12 2.76e-02  -5.7 1.81e-01  -1.1 1.00e+00 4.20e-02f  1
  22 -1.5316276e-02 7.75e-13 7.70e-03  -5.7 3.70e-02  -0.7 1.00e+00 6.26e-01f  1
  23 -1.8726188e-02 2.31e-12 5.00e-02  -5.7 3.59e-01  -1.1 1.00e+00 8.49e-02f  1
  24 -2.0312928e-02 1.81e-12 1.76e-02  -5.7 6.36e-02  -0.7 1.00e+00 2.16e-01f  1
  25 -3.1505506e-02 1.50e-12 5.82e-02  -5.7 5.00e-01  -1.2 9.00e-01 1.72e-01f  1
  26 -3.2124250e-02 1.61e-12 3.43e-02  -5.7 1.22e-01  -0.8 1.00e+00 3.22e-02f  1
  27 -3.6335039e-02 3.98e-13 1.48e-02  -5.7 3.39e-02  -0.3 1.00e+00 7.52e-01f  1
  28 -4.1179916e-02 2.27e-12 3.52e-02  -5.7 1.69e-01  -0.8 1.00e+00 1.65e-01f  1
  29 -4.2558700e-02 1.84e-12 2.70e-02  -5.7 4.33e-02  -0.4 1.00e+00 1.89e-01f  1
iter    objective    inf_pr   inf_du lg(mu)  ||d||  lg(rg) alpha_du alpha_pr  ls
  30 -4.9337904e-02 4.28e-12 4.31e-02  -5.7 1.96e-01  -0.9 1.00e+00 1.97e-01f  1
  31 -6.1205107e-02 5.75e-12 2.01e-02  -5.7 5.67e-02  -0.4 1.00e+00 1.00e+00f  1
  32 -6.2532238e-02 5.70e-12 1.30e-01  -5.7 5.90e-01  -0.9 5.00e-01 8.55e-03f  1
  33 -7.8336182e-02 9.29e-12 1.97e-02  -5.7 5.92e-02  -0.5 1.00e+00 7.12e-01f  1
  34 -3.6169723e-02 8.43e-12 1.56e-01  -5.7 3.96e+00  -1.0 3.78e-04 9.26e-02h  1
  35 -3.6267502e-02 8.42e-12 1.44e-01  -5.7 8.92e-01  -1.4 1.62e-01 1.11e-03f  1
  36 -3.6515964e-02 8.89e-12 1.41e-01  -5.7 9.82e-02  -1.0 7.36e-01 1.81e-02f  4
  37 -3.6756380e-02 9.08e-12 1.41e-01  -5.7 5.59e-01  -1.5 2.82e-01 3.66e-03f  4
  38 -4.1978980e-02 5.11e-12 7.74e-02  -5.7 8.62e-02  -1.1 1.78e-01 4.37e-01f  1
  39 -5.0683721e-02 3.86e-12 5.80e-02  -5.7 3.85e-01  -1.5 1.33e-01 2.46e-01f  1
iter    objective    inf_pr   inf_du lg(mu)  ||d||  lg(rg) alpha_du alpha_pr  ls
  40 -5.4945740e-02 7.28e-12 3.70e-02  -5.7 1.53e-01  -1.1 4.41e-01 3.46e-01F  1
  41 -6.8423080e-02 6.43e-12 4.66e-02  -5.7 1.60e+00  -1.6 4.49e-02 1.16e-01f  1
  42 -7.8579611e-02 5.16e-12 4.46e-02  -5.7 3.52e-01  -1.2 1.51e-01 1.98e-01f  1
  43 -8.1715558e-02 7.15e-12 3.36e-02  -5.7 1.10e-01  -0.7 2.98e-01 1.48e-01f  1
  44 -8.1578258e-02 7.14e-12 3.35e-02  -5.7 7.61e-01  -1.2 1.62e-03 1.02e-03h  1
  45 -8.1569983e-02 7.12e-12 3.34e-02  -5.7 1.31e+00  -1.7 2.31e-04 1.92e-03f  2
  46 -8.1598299e-02 7.15e-12 3.34e-02  -5.7 3.96e-02  -0.4 3.20e-01 3.75e-03f  2
  47 -8.2825554e-02 6.84e-12 3.30e-02  -5.7 1.66e-01  -0.8 1.46e-01 4.29e-02f  1
  48 -8.2819884e-02 6.84e-12 3.34e-02  -5.7 3.59e-01  -1.3 1.51e-01 8.90e-05f  9
  49 -9.4638828e-02 5.08e-12 4.09e-02  -5.7 2.22e-01  -0.9 1.50e-01 2.58e-01f  1
iter    objective    inf_pr   inf_du lg(mu)  ||d||  lg(rg) alpha_du alpha_pr  ls
  50 -1.0035219e-01 8.34e-12 4.08e-02  -5.7 7.14e-02  -0.5 5.84e-02 3.14e-01f  1
  51 -1.1396140e-01 8.22e-12 3.73e-02  -5.7 2.85e+00  -0.9 1.83e-02 1.46e-02f  1
  52 -1.2894997e-01 1.36e-11 6.07e-02  -5.7 1.03e-01  -0.5 5.16e-02 3.30e-01f  1
  53 -1.3592396e-01 9.20e-12 4.51e-02  -5.7 4.22e-02  -0.1 4.04e-01 3.24e-01f  1
  54 -1.3837247e-01 9.06e-12 5.24e-02  -5.7 3.17e-01  -0.6 3.40e-02 1.61e-02f  1
  55 -1.3836861e-01 9.06e-12 5.22e-02  -5.7 4.37e-01  -1.0 9.37e-03 2.57e-05f 11
  56 -1.3835542e-01 9.04e-12 5.42e-02  -5.7 2.67e+01  -0.6 1.45e-03 3.27e-06f  8
  57 -1.4388925e-01 1.01e-11 4.34e-02  -5.7 6.09e-02  -0.2 1.92e-01 1.66e-01f  1
  58 -1.6491224e-01 1.81e-11 6.76e-02  -5.7 1.44e+00  -0.7 9.03e-03 2.59e-02f  1
  59 -1.6490662e-01 1.81e-11 6.76e-02  -5.7 3.52e-01  -1.1 1.52e-04 2.42e-05f 13
iter    objective    inf_pr   inf_du lg(mu)  ||d||  lg(rg) alpha_du alpha_pr  ls
  60 -1.6650624e-01 1.79e-11 7.16e-02  -5.7 5.56e-01  -0.7 5.93e-05 8.80e-03f  1
  61 -1.6649582e-01 1.79e-11 7.18e-02  -5.7 4.45e-01  -1.2 4.71e-03 8.02e-05f 10
  62 -1.5408624e-01 1.73e-11 5.90e-02  -5.7 6.40e-01  -0.8 8.38e-03 3.54e-02h  1
  63 -1.5467059e-01 1.72e-11 5.89e-02  -5.7 1.54e-01  -0.3 4.43e-03 6.47e-03f  1
  64 -1.7057709e-01 1.29e-11 5.09e-02  -5.7 3.41e-02   0.1 3.52e-01 6.92e-01f  1
  65 -1.7616540e-01 1.18e-11 4.19e-02  -5.7 1.47e-01  -0.4 1.05e-01 8.70e-02f  1
  66 -1.8633643e-01 1.16e-11 4.16e-02  -5.7 1.02e+00  -0.9 3.16e-02 1.49e-02f  1
  67 -1.8775792e-01 1.13e-11 4.37e-02  -5.7 9.22e-02  -0.5 4.47e-02 2.89e-02f  1
  68 -1.9343395e-01 1.10e-11 4.64e-02  -5.7 4.54e-01  -0.9 4.51e-02 2.35e-02f  1
  69 -1.9317470e-01 1.10e-11 4.04e-02  -5.7 1.04e+00  -1.4 9.51e-03 5.02e-04h  1
iter    objective    inf_pr   inf_du lg(mu)  ||d||  lg(rg) alpha_du alpha_pr  ls
  70 -1.9316083e-01 1.10e-11 4.83e-02  -5.7 6.96e-01  -1.9 1.24e-02 4.33e-05f 10
  71 -1.8662343e-01 1.07e-11 4.76e-02  -5.7 5.53e-01  -2.4 3.27e-02 2.65e-02h  1
  72 -1.8662189e-01 1.07e-11 4.79e-02  -5.7 4.55e-01    -  2.97e-03 7.35e-06f 15
  73 -1.7954654e-01 1.04e-11 5.51e-02  -5.7 4.51e-01  -2.8 3.00e-03 3.34e-02h  1
  74 -1.7953978e-01 1.04e-11 5.50e-02  -5.7 4.40e-01  -3.3 3.44e-03 3.54e-05f 12
  75 -1.6154748e-01 9.34e-12 5.35e-02  -5.7 4.37e-01  -2.9 5.47e-02 9.80e-02h  1
  76 -1.6237440e-01 9.48e-12 6.29e-02  -5.7 1.42e-01  -0.7 3.69e-02 1.39e-02f  4
  77 -1.6265623e-01 9.58e-12 1.03e-01  -5.7 3.24e+00  -1.1 8.63e-03 2.37e-04f  1
  78 -1.6265258e-01 9.58e-12 8.88e-02  -5.7 4.30e-01    -  4.55e-02 2.47e-05f 12
  79 -1.6271200e-01 9.58e-12 9.00e-02  -5.7 4.06e+01    -  5.85e-05 9.72e-06f  1
iter    objective    inf_pr   inf_du lg(mu)  ||d||  lg(rg) alpha_du alpha_pr  ls
  80 -1.6270961e-01 9.58e-12 6.60e-02  -5.7 6.50e-01  -1.6 2.85e-02 8.55e-06f 13
  81 -1.6270954e-01 9.58e-12 6.53e-02  -5.7 3.97e-01  -2.1 2.10e-03 4.51e-07h 19
  82 -1.6338218e-01 9.22e-12 4.80e-02  -5.7 1.11e+00    -  3.34e-04 3.68e-02f  1
  83 -1.6875580e-01 8.74e-12 4.96e-02  -5.7 1.72e+00    -  5.93e-02 5.19e-02f  1
  84 -1.7312322e-01 8.38e-12 4.86e-02  -5.7 1.53e+00  -2.6 4.42e-02 4.18e-02f  1
  85 -1.7828093e-01 8.31e-12 7.33e-02  -5.7 5.37e+00    -  2.08e-02 8.08e-03f  1
  86 -1.7827521e-01 8.31e-12 1.17e-01  -5.7 5.18e-01  -3.0 3.29e-01 1.85e-04f  6
  87 -1.7184482e-01 6.27e-12 9.77e-02  -5.7 5.22e-01    -  1.33e-01 2.45e-01h  1
  88 -1.7183411e-01 6.27e-12 1.37e-01  -5.7 4.04e-01  -3.5 2.13e-01 6.80e-04f  9
  89 -1.6993099e-01 5.44e-12 1.13e-01  -5.7 4.01e-01    -  2.34e-01 1.31e-01h  1
iter    objective    inf_pr   inf_du lg(mu)  ||d||  lg(rg) alpha_du alpha_pr  ls
  90 -1.6992277e-01 5.44e-12 1.17e-01  -5.7 2.88e-01    -  2.27e-01 5.22e-04f  8
  91 -1.6678266e-01 4.64e-12 9.69e-02  -5.7 2.07e-01  -4.0 2.15e-01 1.46e-01h  1
  92 -1.6677934e-01 4.64e-12 9.02e-02  -5.7 1.20e-01    -  2.25e-01 1.50e-04f 13
  93 -1.6080880e-01 3.14e-12 1.92e-01  -5.7 1.20e-01    -  1.96e-02 3.24e-01h  1
  94 -1.6079910e-01 3.13e-12 2.02e-01  -5.7 8.79e-02    -  4.50e-01 9.77e-04f 11
  95 -1.5592859e-01 2.22e-16 1.83e-02  -5.7 8.79e-02  -4.5 3.43e-01 1.00e+00h  1
  96 -1.5597523e-01 4.44e-16 7.42e-05  -5.7 7.42e-03    -  1.00e+00 1.00e+00f  1
  97 -1.5597367e-01 8.88e-16 1.59e-09  -5.7 5.81e-05  -4.9 1.00e+00 1.00e+00f  1
  98 -1.5608700e-01 2.22e-16 1.28e-06  -8.6 5.30e-04    -  1.00e+00 9.97e-01f  1
  99 -1.5608770e-01 2.22e-16 8.50e-11  -8.6 7.25e-06  -5.4 1.00e+00 1.00e+00f  1

Number of Iterations....: 99

                                   (scaled)                 (unscaled)
Objective...............:  -1.5608770171526884e-01   -1.5608770171526884e-01
Dual infeasibility......:   8.5039126860325143e-11    8.5039126860325143e-11
Constraint violation....:   2.2204460492503131e-16    2.2204460492503131e-16
Complementarity.........:   2.5593833893600570e-09    2.5593833893600570e-09
Overall NLP error.......:   2.5593833893600570e-09    2.5593833893600570e-09


Number of objective function evaluations             = 321
Number of objective gradient evaluations             = 100
Number of equality constraint evaluations            = 321
Number of inequality constraint evaluations          = 0
Number of equality constraint Jacobian evaluations   = 1
Number of inequality constraint Jacobian evaluations = 0
Number of Lagrangian Hessian evaluations             = 99
Total CPU secs in IPOPT (w/o function evaluations)   =      0.280
Total CPU secs in NLP function evaluations           =      3.980

EXIT: Optimal Solution Found.
